NAME : pairopt.-191686.tour
COMMENT : Length = -191686
COMMENT : Found by LKH-3 [Keld Helsgaun] Fri Apr 11 15:01:39 2025
TYPE : TOUR
DIMENSION : 17
TOUR_SECTION
1
2
4
8
6
5
7
9
10
15
13
17
3
11
14
12
16
-1
EOF
